(declare-const v0 Bool)
(declare-const v1 Bool)
(declare-const v2 Bool)
(declare-const v3 Bool)
(declare-const v4 Bool)
(assert (edge (or v0 v1) (or v3 (not v2))))
(assert (edge (or v3 v4) (or v4 (not v0))))
(assert (edge (or v0 v2) (or (not v3) (not v2))))
(assert (edge (or v0 v1 v3) (or v3 (not v4))))
(assert (edge true (or v0 v4)))
(assert (not (edge (or v0 (not v3)) (or v0 v4))))